/* Objective function */
max: +10.056449225 C1 +8.60399475435 C2 +7.79299132577 C4 +12.8244644009 C5 +9.35279047768 C6 +7.25834790354 C8
 +9.56595304376 C9 +8.97225023128 C10 +9.30558252144 C11 +6.44450350796 C12 +9.9440173652 C13 +10.2110396803 C14
 +10.3205992332 C15 +9.72441563411 C16 +8.56295875979 C17 +6.79414333528 C18 +8.80035176971 C19 +10.4520232223 C20
 +6.74593978802 C21 +9.97270629853 C22 +10.5480999447 C23 +9.89587625726 C24 +18.7599045974 C25 +11.8481204787 C26
 +9.80238768827 C27 +10.7290489791 C29 +7.86763006429 C30 +9.1972874645 C31 +8.79703403662 C32 +8.90913318688 C33
 +8.52667370595 C34 +11.625201296 C35 +11.5086281373 C37 +7.31800547911 C39 +7.50329166063 C40 +8.78131383798 C41
 +13.7935674012 C42 +18.8099807479 C43 +8.9411541349 C44 +8.52786137776 C46 +11.7011034987 C47 +7.2456658795 C48
 +8.86439184304 C50 +8.33991016208 C52 +8.50107239237 C55 +7.82488489337 C56 +7.4773408942 C57 +15.418053072 C59
 +11.0896744074 C60 +6.58706217517 C61 +9.23761111378 C62 +6.85966773902 C65 +7.79855484706 C67 +7.75239274463 C68
 +8.90300045277 C69 +12.0806313803 C70 +7.67850773256 C71 +7.57772943125 C72 +7.89858270632 C73 +8.37294485459 C74
 +8.82403005824 C76 +7.67768668562 C77 +6.43261469102 C78 +8.59377907672 C79 +7.38914872869 C81 +9.47624752155 C82
 +9.56318272682 C83 +10.2462887277 C85 +8.06449545886 C87 +7.44290971498 C88 +9.79666937026 C90 +7.31132561965 C91
 +7.47890019918 C92 +7.66988387183 C94 +9.81978505891 C95 +9.68628566859 C96 +7.3636719088 C98 +10.3357148874 C99
 +7.44613589735 C100 +8.81452841187 C101 +7.59512408045 C104 +7.44161557732 C105 +7.91982502352 C108
 +11.0530646862 C109 +8.22022164504 C110 +8.3727615303 C112 +7.16374138466 C113 +13.9682480098 C114 +8.58648818845 C115
 +9.7842375459 C117 +3.81941398678 C118 +7.79029116565 C119 +8.3792346899 C120 +7.13861021451 C121 +11.9010167081 C122
 +7.81863866852 C123 +11.6744370654 C126 +7.04680169487 C128 +10.0905922726 C129 +11.5544999668 C130
 +7.69028872324 C131 +24.4831042471 C132 +8.01558896907 C133 +7.59816728774 C134 +7.85054075699 C136
 +12.8257125173 C137 +9.78810890059 C139 +12.8736284632 C141 +7.83568717459 C142 +8.00632354973 C144
 +9.70422464928 C145 +9.16612628843 C147 +8.48007380406 C149 +7.72477074644 C150 +6.5026464902 C151 +26.6485271825 C152
 +10.4835668852 C153 +9.40289193816 C155 +9.03782766936 C156 +9.3232519057 C157 +11.3171319124 C159 +7.1082942327 C160
 +10.2828524011 C161 +8.68459826936 C163 +7.26426404761 C164 +10.272256226 C165 +8.05854971805 C166 +8.43748314002 C167
 +10.4719413398 C168 +7.6563155651 C169 +10.3222665796 C171 +9.02242443784 C173 +11.7034083471 C174 +8.40621401846 C175
 +15.1938906461 C180 +9.9353318168 C181 +8.62805923869 C182 +7.3955001591 C183 +7.57918650674 C184 +7.76744532038 C186
 +6.5692297098 C187 +5.85309674986 C189 +10.7655275202 C191 +9.81958231326 C192 +7.92430416972 C193 +12.1695590256 C194
 +9.82526315134 C195 +7.36037478061 C196 +7.84699941638 C197 +7.495443848 C198 +7.81662525502 C199 +4.57442373253 C200
 +9.76549665536 C201 +8.12152312286 C202 +9.73595060106 C204 +17.073048955 C205 +10.0468638355 C207 +6.96763749924 C208
 +7.68662386404 C210 +8.0143937708 C212 +11.2522763229 C213 +8.24658251957 C215 +9.14347649214 C216 +8.86497782774 C217
 +17.6481600956 C218 +7.02730869779 C219 +10.1645829802 C220 +7.28285982604 C221 +9.07869480581 C225
 +8.68694847875 C226 +10.7170737631 C228 +14.5440745299 C229 +8.85577157914 C231 +9.92595864114 C232
 +6.23061211924 C233 +8.62283903789 C234 +9.42782590552 C235 +11.2784057024 C236 +18.7879014111 C238
 +5.41844992025 C242 +7.82933096745 C243 +7.2855219181 C245 +6.54477175321 C247 +8.63474106678 C249 +7.40098706477 C250
 +6.93746706204 C251 +8.95846935776 C252 +8.43856793554 C253 +8.71776711979 C255 +14.2626847655 C256
 +8.97824755795 C257 +9.81411565544 C258 +9.55613037558 C259 +7.69934390856 C260 +8.94097866525 C261
 +6.77558964102 C263 +7.03067879488 C265 +9.70430810715 C266 +5.25116034052 C267 +7.03134916014 C268
 +7.34282131817 C269 +8.96723433659 C273 +9.6338744559 C274 +8.02852091082 C275 +7.35552342277 C276 +7.89149248514 C278
 +7.99677610054 C279 +6.86662731652 C281 +7.36153603041 C282 +7.9896959629 C284 +7.79976836702 C285 +6.49351543567 C286
 +10.213263906 C287 +7.36771359094 C288 +8.95533905418 C289 +8.01829222979 C290 +7.82578849206 C291 +7.65990894235 C292
 +8.00659430123 C294 +8.12728415106 C295 +8.77106818443 C296 +8.12508852859 C297 +7.9853023762 C298 +10.3327739279 C299
 +10.3614850207 C302 +9.42506556371 C303 +8.95455403776 C304 +9.18137399421 C307 +8.5329909643 C308 +9.23211207264 C311
 +9.34098047501 C316 +8.58250607194 C317 +8.18967859776 C318 +7.91374815889 C319 +13.4931207853 C320
 +8.27928489525 C321 +10.9480866373 C322 +10.3861426781 C323 +8.62404131394 C324 +6.88099842312 C326
 +6.24678950179 C327 +8.08462794091 C328 +8.3558419484 C329 +7.03277238009 C331 +10.4114575594 C334 +8.95691314912 C335
 +6.00068366671 C337 +7.84875131099 C338 +7.54650802158 C339 +8.25837791219 C341 +8.20783961742 C343
 +7.91082028689 C344 +7.16021239365 C345 +9.28162188189 C346 +9.99949283104 C347 +8.1452981808 C348 +11.4792218052 C349
 +6.66592620582 C350 +8.58193553595 C351 +6.40606180698 C354 +7.70788268746 C355 +8.3878621163 C356 +9.27915461802 C361
 +8.22430889605 C364 +7.3276601285 C365 +9.2305860143 C368 +7.91178940738 C369 +7.78742773382 C370 +7.65065044968 C371
 +9.36724863091 C372 +7.64671023059 C373 +7.70424552078 C374 +10.0041705256 C375 +6.82358567715 C376
 +8.3105052828 C377 +7.7588795586 C379 +10.6423099363 C380 +7.25430198506 C382 +9.70205893186 C383 +8.53442783803 C384
 +8.32065500195 C385 +7.53893538106 C386 +19.3534539698 C387 +7.8432995725 C388 +8.68578998858 C389 +10.8142014461 C390
 +8.78397529954 C392 +9.63820977326 C395 +7.25576027751 C396 +7.99909571698 C397 +6.06148886848 C399
 +6.52073261408 C400 +9.61403558243 C401 +6.20908134105 C403 +8.573211954 C404 +10.0294756686 C405 +7.44556618408 C406
 +8.0546461911 C407 +7.33994883297 C408 +7.64863627948 C409 +8.76893172194 C410 +9.77202209008 C411 +11.3329851542 C412
 +7.71460389512 C413 +8.40379209422 C414 +10.6778380483 C415 +7.68865024514 C416 +8.78027112858 C418
 +8.47239361032 C419 +8.59814622909 C420 +11.5869202253 C421 +7.74479768746 C425 +9.68292973715 C426
 +7.10425895234 C427 +8.93358919462 C428 +9.70166427701 C431 +13.8597627932 C432 +9.32332528256 C434
 +9.31710781485 C435 +10.508063768 C436 +10.5772730155 C437 +7.32931768201 C439 +8.15751998458 C440 +14.7115708538 C441
 +8.12193777477 C442 +11.4031185401 C443 +6.96355544799 C445 +14.8555093575 C447 +10.1856951977 C448
 +9.88113201067 C449 +5.89839755834 C450 +9.81575284218 C451 +19.0344715601 C452 +8.04554492869 C453
 +7.70623562753 C454 +9.66157254744 C458 +7.35054824808 C459 +6.56322973782 C460 +7.85357516169 C461
 +7.722199464 C462 +5.23127674305 C464 +8.24954632282 C465 +9.40178139674 C466 +8.23474822003 C467 +8.85228948443 C468
 +16.0427357836 C469 +7.97071202098 C470 +11.3496220096 C473 +9.61460526926 C475 +7.99276938286 C476
 +8.1695764988 C478 +10.6490251058 C479 +11.3999698802 C481 +8.70052245645 C483 +7.81595871393 C484 +9.0200622029 C485
 +8.19428629187 C487 +7.64578658122 C490 +6.63518862651 C491 +8.96781126446 C492 +13.3475811012 C493
 +9.2484902264 C496 +8.16943024192 C500 +11.7317046823 C501 +10.0395221042 C503 +8.08739185094 C504 +9.7246088355 C505
 +8.84120765614 C506 +8.30397390283 C507 +9.7750125511 C508 +10.0938065059 C509 +8.97905166778 C510 +8.24036699048 C512
 +8.73286795997 C513 +10.0475649905 C514 +6.56941893047 C515 +7.33458305158 C519 +8.16390295898 C521
 +8.69458362613 C523 +9.72007205429 C524 +8.82796129486 C525 +8.08795765806 C527 +7.17326330554 C528
 +8.73530035936 C531 +8.65692901394 C532 +8.87283671307 C534 +7.1051927712 C535 +6.15195187362 C536 +11.4124305643 C538
 +14.1881601491 C541 +6.78710574959 C542 +8.91915735226 C543 +7.80923772474 C545 +7.54095915915 C546
 +7.43787658167 C547 +23.1829411645 C548 +9.46427266645 C549 +7.09442085129 C550 +8.21887055419 C551
 +7.37245159527 C555 +8.13366653389 C557 +8.92068602069 C559 +8.05917982038 C561 +8.18680145312 C563
 +9.16887241003 C565 +7.36023218207 C566 +9.17540657248 C570 +9.16742477006 C571 +8.69398097248 C572;

/* Constraints */
+C1 +C2 +C3 +C4 +C5 +C6 +C7 +C8 +C9 +C10 +C11 +C12 +C13 +C14 +C15 +C16 +C17 +C18 +C19 +C20 +C21 +C22
 +C23 +C24 +C25 +C26 +C27 +C28 +C29 +C30 +C31 +C32 +C33 +C34 +C35 +C36 +C37 +C38 +C39 +C40 +C41 +C42
 +C43 +C44 +C45 +C46 +C47 +C48 +C49 +C50 +C51 +C52 +C53 +C54 +C55 +C56 +C57 +C58 +C59 +C60 +C61 +C62
 +C63 +C64 +C65 +C66 +C67 +C68 +C69 +C70 +C71 +C72 +C73 +C74 +C75 +C76 +C77 +C78 +C79 +C80 +C81 +C82
 +C83 +C84 +C85 +C86 +C87 +C88 +C89 +C90 +C91 +C92 +C93 +C94 +C95 +C96 +C97 +C98 +C99 +C100 +C101 +C102
 +C103 +C104 +C105 +C106 +C107 +C108 +C109 +C110 +C111 +C112 +C113 +C114 +C115 +C116 +C117 +C118 +C119
 +C120 +C121 +C122 +C123 +C124 +C125 +C126 +C127 +C128 +C129 +C130 +C131 +C132 +C133 +C134 +C135 +C136
 +C137 +C138 +C139 +C140 +C141 +C142 +C143 +C144 +C145 +C146 +C147 +C148 +C149 +C150 +C151 +C152 +C153
 +C154 +C155 +C156 +C157 +C158 +C159 +C160 +C161 +C162 +C163 +C164 +C165 +C166 +C167 +C168 +C169 +C170
 +C171 +C172 +C173 +C174 +C175 +C176 +C177 +C178 +C179 +C180 +C181 +C182 +C183 +C184 +C185 +C186 +C187
 +C188 +C189 +C190 +C191 +C192 +C193 +C194 +C195 +C196 +C197 +C198 +C199 +C200 +C201 +C202 +C203 +C204
 +C205 +C206 +C207 +C208 +C209 +C210 +C211 +C212 +C213 +C214 +C215 +C216 +C217 +C218 +C219 +C220 +C221
 +C222 +C223 +C224 +C225 +C226 +C227 +C228 +C229 +C230 +C231 +C232 +C233 +C234 +C235 +C236 +C237 +C238
 +C239 +C240 +C241 +C242 +C243 +C244 +C245 +C246 +C247 +C248 +C249 +C250 +C251 +C252 +C253 +C254 +C255
 +C256 +C257 +C258 +C259 +C260 +C261 +C262 +C263 +C264 +C265 +C266 +C267 +C268 +C269 +C270 +C271 +C272
 +C273 +C274 +C275 +C276 +C277 +C278 +C279 +C280 +C281 +C282 +C283 +C284 +C285 +C286 +C287 +C288 +C289
 +C290 +C291 +C292 +C293 +C294 +C295 +C296 +C297 +C298 +C299 +C300 +C301 +C302 +C303 +C304 +C305 +C306
 +C307 +C308 +C309 +C310 +C311 +C312 +C313 +C314 +C315 +C316 +C317 +C318 +C319 +C320 +C321 +C322 +C323
 +C324 +C325 +C326 +C327 +C328 +C329 +C330 +C331 +C332 +C333 +C334 +C335 +C336 +C337 +C338 +C339 +C340
 +C341 +C342 +C343 +C344 +C345 +C346 +C347 +C348 +C349 +C350 +C351 +C352 +C353 +C354 +C355 +C356 +C357
 +C358 +C359 +C360 +C361 +C362 +C363 +C364 +C365 +C366 +C367 +C368 +C369 +C370 +C371 +C372 +C373 +C374
 +C375 +C376 +C377 +C378 +C379 +C380 +C381 +C382 +C383 +C384 +C385 +C386 +C387 +C388 +C389 +C390 +C391
 +C392 +C393 +C394 +C395 +C396 +C397 +C398 +C399 +C400 +C401 +C402 +C403 +C404 +C405 +C406 +C407 +C408
 +C409 +C410 +C411 +C412 +C413 +C414 +C415 +C416 +C417 +C418 +C419 +C420 +C421 +C422 +C423 +C424 +C425
 +C426 +C427 +C428 +C429 +C430 +C431 +C432 +C433 +C434 +C435 +C436 +C437 +C438 +C439 +C440 +C441 +C442
 +C443 +C444 +C445 +C446 +C447 +C448 +C449 +C450 +C451 +C452 +C453 +C454 +C455 +C456 +C457 +C458 +C459
 +C460 +C461 +C462 +C463 +C464 +C465 +C466 +C467 +C468 +C469 +C470 +C471 +C472 +C473 +C474 +C475 +C476
 +C477 +C478 +C479 +C480 +C481 +C482 +C483 +C484 +C485 +C486 +C487 +C488 +C489 +C490 +C491 +C492 +C493
 +C494 +C495 +C496 +C497 +C498 +C499 +C500 +C501 +C502 +C503 +C504 +C505 +C506 +C507 +C508 +C509 +C510
 +C511 +C512 +C513 +C514 +C515 +C516 +C517 +C518 +C519 +C520 +C521 +C522 +C523 +C524 +C525 +C526 +C527
 +C528 +C529 +C530 +C531 +C532 +C533 +C534 +C535 +C536 +C537 +C538 +C539 +C540 +C541 +C542 +C543 +C544
 +C545 +C546 +C547 +C548 +C549 +C550 +C551 +C552 +C553 +C554 +C555 +C556 +C557 +C558 +C559 +C560 +C561
 +C562 +C563 +C564 +C565 +C566 +C567 +C568 +C569 +C570 +C571 +C572 = 8;
0 C1 <= 50000;
+C9 +C13 +C16 +C23 +C26 +C29 +C30 +C32 +C45 +C46 +C53 +C56 +C66 +C67 +C71 +C73 +C76 +C87 +C90 +C94 +C103
 +C110 +C114 +C115 +C119 +C123 +C138 +C142 +C145 +C147 +C149 +C153 +C155 +C156 +C158 +C171 +C178 +C184
 +C187 +C199 +C207 +C211 +C214 +C215 +C216 +C225 +C232 +C234 +C235 +C244 +C245 +C252 +C253 +C260 +C270
 +C273 +C278 +C279 +C282 +C290 +C296 +C297 +C299 +C300 +C304 +C305 +C314 +C318 +C326 +C335 +C338 +C344
 +C347 +C349 +C351 +C352 +C357 +C360 +C366 +C369 +C371 +C373 +C382 +C386 +C397 +C398 +C401 +C413 +C414
 +C415 +C418 +C419 +C422 +C423 +C437 +C442 +C444 +C447 +C452 +C456 +C458 +C468 +C471 +C476 +C484 +C490
 +C492 +C495 +C497 +C512 +C514 +C515 +C525 +C531 +C535 +C540 +C542 +C552 +C563 +C569 +C571 <= 2;
+C2 +C7 +C8 +C18 +C33 +C34 +C37 +C39 +C41 +C48 +C50 +C59 +C60 +C61 +C65 +C68 +C77 +C81 +C85 +C91 +C92
 +C104 +C105 +C108 +C113 +C118 +C128 +C130 +C132 +C134 +C135 +C139 +C151 +C160 +C168 +C174 +C175 +C180
 +C182 +C189 +C192 +C194 +C196 +C200 +C202 +C210 +C221 +C222 +C224 +C229 +C233 +C238 +C240 +C242 +C243
 +C247 +C255 +C256 +C257 +C258 +C259 +C265 +C267 +C277 +C280 +C283 +C288 +C291 +C295 +C298 +C307 +C320
 +C325 +C327 +C328 +C329 +C334 +C337 +C350 +C355 +C358 +C370 +C372 +C374 +C375 +C376 +C390 +C392 +C395
 +C400 +C403 +C406 +C407 +C410 +C428 +C431 +C435 +C439 +C440 +C445 +C446 +C448 +C449 +C450 +C459 +C464
 +C466 +C470 +C478 +C479 +C491 +C496 +C504 +C509 +C510 +C519 +C532 +C536 +C537 +C538 +C546 +C551 +C554
 +C555 +C558 +C564 +C567 +C570 <= 2;
+C1 +C3 +C10 +C11 +C12 +C14 +C17 +C22 +C25 +C28 +C31 +C36 +C42 +C43 +C44 +C47 +C55 +C57 +C64 +C70 +C72
 +C75 +C79 +C80 +C83 +C89 +C98 +C106 +C120 +C122 +C124 +C125 +C126 +C127 +C129 +C133 +C157 +C161 +C162
 +C165 +C166 +C173 +C177 +C179 +C181 +C190 +C195 +C197 +C201 +C203 +C213 +C217 +C218 +C223 +C226 +C228
 +C237 +C241 +C246 +C251 +C262 +C266 +C269 +C271 +C272 +C287 +C289 +C302 +C306 +C309 +C315 +C316 +C322
 +C331 +C339 +C341 +C345 +C346 +C361 +C363 +C378 +C379 +C383 +C385 +C387 +C391 +C393 +C404 +C405 +C411
 +C412 +C417 +C421 +C424 +C427 +C433 +C438 +C453 +C454 +C457 +C460 +C463 +C465 +C480 +C486 +C489 +C493
 +C494 +C498 +C499 +C500 +C502 +C505 +C507 +C508 +C511 +C521 +C523 +C524 +C527 +C533 +C534 +C539 +C543
 +C548 +C556 +C559 +C561 +C562 <= 2;
+C6 +C24 +C38 +C49 +C52 +C54 +C58 +C62 +C74 +C84 +C86 +C93 +C97 +C101 +C102 +C107 +C111 +C116 +C140 +C141
 +C143 +C144 +C146 +C148 +C154 +C170 +C172 +C176 +C185 +C188 +C193 +C206 +C209 +C231 +C239 +C249 +C254
 +C261 +C264 +C274 +C276 +C286 +C293 +C301 +C310 +C312 +C313 +C321 +C323 +C330 +C332 +C333 +C336 +C340
 +C342 +C359 +C362 +C365 +C367 +C377 +C381 +C389 +C394 +C402 +C416 +C429 +C430 +C436 +C441 +C451 +C455
 +C472 +C474 +C475 +C477 +C482 +C485 +C488 +C503 +C516 +C522 +C526 +C529 +C530 +C544 +C550 +C560 +C568 <= 2;
+C4 +C5 +C15 +C19 +C20 +C21 +C27 +C35 +C40 +C51 +C63 +C69 +C78 +C82 +C88 +C95 +C96 +C99 +C100 +C109 +C112
 +C117 +C121 +C131 +C136 +C137 +C150 +C152 +C159 +C163 +C164 +C167 +C169 +C183 +C186 +C191 +C198 +C204
 +C205 +C208 +C212 +C219 +C220 +C227 +C230 +C236 +C248 +C250 +C263 +C268 +C275 +C281 +C284 +C285 +C292
 +C294 +C303 +C308 +C311 +C317 +C319 +C324 +C343 +C348 +C353 +C354 +C356 +C364 +C368 +C380 +C384 +C388
 +C396 +C399 +C408 +C409 +C420 +C425 +C426 +C432 +C434 +C443 +C461 +C462 +C467 +C469 +C473 +C481 +C483
 +C487 +C501 +C506 +C513 +C517 +C518 +C520 +C528 +C541 +C545 +C547 +C549 +C553 +C557 +C565 +C566 +C572 <= 2;
0 C1 <= 2;

/* Variable bounds */
C1 <= 1;
C2 <= 1;
C3 <= 1;
C4 <= 1;
C5 <= 1;
C6 <= 1;
C7 <= 1;
C8 <= 1;
C9 <= 1;
C10 <= 1;
C11 <= 1;
C12 <= 1;
C13 <= 1;
C14 <= 1;
C15 <= 1;
C16 <= 1;
C17 <= 1;
C18 <= 1;
C19 <= 1;
C20 <= 1;
C21 <= 1;
C22 <= 1;
C23 <= 1;
C24 <= 1;
C25 <= 1;
C26 <= 1;
C27 <= 1;
C28 <= 1;
C29 <= 1;
C30 <= 1;
C31 <= 1;
C32 <= 1;
C33 <= 1;
C34 <= 1;
C35 <= 1;
C36 <= 1;
C37 <= 1;
C38 <= 1;
C39 <= 1;
C40 <= 1;
C41 <= 1;
C42 <= 1;
C43 <= 1;
C44 <= 1;
C45 <= 1;
C46 <= 1;
C47 <= 1;
C48 <= 1;
C49 <= 1;
C50 <= 1;
C51 <= 1;
C52 <= 1;
C53 <= 1;
C54 <= 1;
C55 <= 1;
C56 <= 1;
C57 <= 1;
C58 <= 1;
C59 <= 1;
C60 <= 1;
C61 <= 1;
C62 <= 1;
C63 <= 1;
C64 <= 1;
C65 <= 1;
C66 <= 1;
C67 <= 1;
C68 <= 1;
C69 <= 1;
C70 <= 1;
C71 <= 1;
C72 <= 1;
C73 <= 1;
C74 <= 1;
C75 <= 1;
C76 <= 1;
C77 <= 1;
C78 <= 1;
C79 <= 1;
C80 <= 1;
C81 <= 1;
C82 <= 1;
C83 <= 1;
C84 <= 1;
C85 <= 1;
C86 <= 1;
C87 <= 1;
C88 <= 1;
C89 <= 1;
C90 <= 1;
C91 <= 1;
C92 <= 1;
C93 <= 1;
C94 <= 1;
C95 <= 1;
C96 <= 1;
C97 <= 1;
C98 <= 1;
C99 <= 1;
C100 <= 1;
C101 <= 1;
C102 <= 1;
C103 <= 1;
C104 <= 1;
C105 <= 1;
C106 <= 1;
C107 <= 1;
C108 <= 1;
C109 <= 1;
C110 <= 1;
C111 <= 1;
C112 <= 1;
C113 <= 1;
C114 <= 1;
C115 <= 1;
C116 <= 1;
C117 <= 1;
C118 <= 1;
C119 <= 1;
C120 <= 1;
C121 <= 1;
C122 <= 1;
C123 <= 1;
C124 <= 1;
C125 <= 1;
C126 <= 1;
C127 <= 1;
C128 <= 1;
C129 <= 1;
C130 <= 1;
C131 <= 1;
C132 <= 1;
C133 <= 1;
C134 <= 1;
C135 <= 1;
C136 <= 1;
C137 <= 1;
C138 <= 1;
C139 <= 1;
C140 <= 1;
C141 <= 1;
C142 <= 1;
C143 <= 1;
C144 <= 1;
C145 <= 1;
C146 <= 1;
C147 <= 1;
C148 <= 1;
C149 <= 1;
C150 <= 1;
C151 <= 1;
C152 <= 1;
C153 <= 1;
C154 <= 1;
C155 <= 1;
C156 <= 1;
C157 <= 1;
C158 <= 1;
C159 <= 1;
C160 <= 1;
C161 <= 1;
C162 <= 1;
C163 <= 1;
C164 <= 1;
C165 <= 1;
C166 <= 1;
C167 <= 1;
C168 <= 1;
C169 <= 1;
C170 <= 1;
C171 <= 1;
C172 <= 1;
C173 <= 1;
C174 <= 1;
C175 <= 1;
C176 <= 1;
C177 <= 1;
C178 <= 1;
C179 <= 1;
C180 <= 1;
C181 <= 1;
C182 <= 1;
C183 <= 1;
C184 <= 1;
C185 <= 1;
C186 <= 1;
C187 <= 1;
C188 <= 1;
C189 <= 1;
C190 <= 1;
C191 <= 1;
C192 <= 1;
C193 <= 1;
C194 <= 1;
C195 <= 1;
C196 <= 1;
C197 <= 1;
C198 <= 1;
C199 <= 1;
C200 <= 1;
C201 <= 1;
C202 <= 1;
C203 <= 1;
C204 <= 1;
C205 <= 1;
C206 <= 1;
C207 <= 1;
C208 <= 1;
C209 <= 1;
C210 <= 1;
C211 <= 1;
C212 <= 1;
C213 <= 1;
C214 <= 1;
C215 <= 1;
C216 <= 1;
C217 <= 1;
C218 <= 1;
C219 <= 1;
C220 <= 1;
C221 <= 1;
C222 <= 1;
C223 <= 1;
C224 <= 1;
C225 <= 1;
C226 <= 1;
C227 <= 1;
C228 <= 1;
C229 <= 1;
C230 <= 1;
C231 <= 1;
C232 <= 1;
C233 <= 1;
C234 <= 1;
C235 <= 1;
C236 <= 1;
C237 <= 1;
C238 <= 1;
C239 <= 1;
C240 <= 1;
C241 <= 1;
C242 <= 1;
C243 <= 1;
C244 <= 1;
C245 <= 1;
C246 <= 1;
C247 <= 1;
C248 <= 1;
C249 <= 1;
C250 <= 1;
C251 <= 1;
C252 <= 1;
C253 <= 1;
C254 <= 1;
C255 <= 1;
C256 <= 1;
C257 <= 1;
C258 <= 1;
C259 <= 1;
C260 <= 1;
C261 <= 1;
C262 <= 1;
C263 <= 1;
C264 <= 1;
C265 <= 1;
C266 <= 1;
C267 <= 1;
C268 <= 1;
C269 <= 1;
C270 <= 1;
C271 <= 1;
C272 <= 1;
C273 <= 1;
C274 <= 1;
C275 <= 1;
C276 <= 1;
C277 <= 1;
C278 <= 1;
C279 <= 1;
C280 <= 1;
C281 <= 1;
C282 <= 1;
C283 <= 1;
C284 <= 1;
C285 <= 1;
C286 <= 1;
C287 <= 1;
C288 <= 1;
C289 <= 1;
C290 <= 1;
C291 <= 1;
C292 <= 1;
C293 <= 1;
C294 <= 1;
C295 <= 1;
C296 <= 1;
C297 <= 1;
C298 <= 1;
C299 <= 1;
C300 <= 1;
C301 <= 1;
C302 <= 1;
C303 <= 1;
C304 <= 1;
C305 <= 1;
C306 <= 1;
C307 <= 1;
C308 <= 1;
C309 <= 1;
C310 <= 1;
C311 <= 1;
C312 <= 1;
C313 <= 1;
C314 <= 1;
C315 <= 1;
C316 <= 1;
C317 <= 1;
C318 <= 1;
C319 <= 1;
C320 <= 1;
C321 <= 1;
C322 <= 1;
C323 <= 1;
C324 <= 1;
C325 <= 1;
C326 <= 1;
C327 <= 1;
C328 <= 1;
C329 <= 1;
C330 <= 1;
C331 <= 1;
C332 <= 1;
C333 <= 1;
C334 <= 1;
C335 <= 1;
C336 <= 1;
C337 <= 1;
C338 <= 1;
C339 <= 1;
C340 <= 1;
C341 <= 1;
C342 <= 1;
C343 <= 1;
C344 <= 1;
C345 <= 1;
C346 <= 1;
C347 <= 1;
C348 <= 1;
C349 <= 1;
C350 <= 1;
C351 <= 1;
C352 <= 1;
C353 <= 1;
C354 <= 1;
C355 <= 1;
C356 <= 1;
C357 <= 1;
C358 <= 1;
C359 <= 1;
C360 <= 1;
C361 <= 1;
C362 <= 1;
C363 <= 1;
C364 <= 1;
C365 <= 1;
C366 <= 1;
C367 <= 1;
C368 <= 1;
C369 <= 1;
C370 <= 1;
C371 <= 1;
C372 <= 1;
C373 <= 1;
C374 <= 1;
C375 <= 1;
C376 <= 1;
C377 <= 1;
C378 <= 1;
C379 <= 1;
C380 <= 1;
C381 <= 1;
C382 <= 1;
C383 <= 1;
C384 <= 1;
C385 <= 1;
C386 <= 1;
C387 <= 1;
C388 <= 1;
C389 <= 1;
C390 <= 1;
C391 <= 1;
C392 <= 1;
C393 <= 1;
C394 <= 1;
C395 <= 1;
C396 <= 1;
C397 <= 1;
C398 <= 1;
C399 <= 1;
C400 <= 1;
C401 <= 1;
C402 <= 1;
C403 <= 1;
C404 <= 1;
C405 <= 1;
C406 <= 1;
C407 <= 1;
C408 <= 1;
C409 <= 1;
C410 <= 1;
C411 <= 1;
C412 <= 1;
C413 <= 1;
C414 <= 1;
C415 <= 1;
C416 <= 1;
C417 <= 1;
C418 <= 1;
C419 <= 1;
C420 <= 1;
C421 <= 1;
C422 <= 1;
C423 <= 1;
C424 <= 1;
C425 <= 1;
C426 <= 1;
C427 <= 1;
C428 <= 1;
C429 <= 1;
C430 <= 1;
C431 <= 1;
C432 <= 1;
C433 <= 1;
C434 <= 1;
C435 <= 1;
C436 <= 1;
C437 <= 1;
C438 <= 1;
C439 <= 1;
C440 <= 1;
C441 <= 1;
C442 <= 1;
C443 <= 1;
C444 <= 1;
C445 <= 1;
C446 <= 1;
C447 <= 1;
C448 <= 1;
C449 <= 1;
C450 <= 1;
C451 <= 1;
C452 <= 1;
C453 <= 1;
C454 <= 1;
C455 <= 1;
C456 <= 1;
C457 <= 1;
C458 <= 1;
C459 <= 1;
C460 <= 1;
C461 <= 1;
C462 <= 1;
C463 <= 1;
C464 <= 1;
C465 <= 1;
C466 <= 1;
C467 <= 1;
C468 <= 1;
C469 <= 1;
C470 <= 1;
C471 <= 1;
C472 <= 1;
C473 <= 1;
C474 <= 1;
C475 <= 1;
C476 <= 1;
C477 <= 1;
C478 <= 1;
C479 <= 1;
C480 <= 1;
C481 <= 1;
C482 <= 1;
C483 <= 1;
C484 <= 1;
C485 <= 1;
C486 <= 1;
C487 <= 1;
C488 <= 1;
C489 <= 1;
C490 <= 1;
C491 <= 1;
C492 <= 1;
C493 <= 1;
C494 <= 1;
C495 <= 1;
C496 <= 1;
C497 <= 1;
C498 <= 1;
C499 <= 1;
C500 <= 1;
C501 <= 1;
C502 <= 1;
C503 <= 1;
C504 <= 1;
C505 <= 1;
C506 <= 1;
C507 <= 1;
C508 <= 1;
C509 <= 1;
C510 <= 1;
C511 <= 1;
C512 <= 1;
C513 <= 1;
C514 <= 1;
C515 <= 1;
C516 <= 1;
C517 <= 1;
C518 <= 1;
C519 <= 1;
C520 <= 1;
C521 <= 1;
C522 <= 1;
C523 <= 1;
C524 <= 1;
C525 <= 1;
C526 <= 1;
C527 <= 1;
C528 <= 1;
C529 <= 1;
C530 <= 1;
C531 <= 1;
C532 <= 1;
C533 <= 1;
C534 <= 1;
C535 <= 1;
C536 <= 1;
C537 <= 1;
C538 <= 1;
C539 <= 1;
C540 <= 1;
C541 <= 1;
C542 <= 1;
C543 <= 1;
C544 <= 1;
C545 <= 1;
C546 <= 1;
C547 <= 1;
C548 <= 1;
C549 <= 1;
C550 <= 1;
C551 <= 1;
C552 <= 1;
C553 <= 1;
C554 <= 1;
C555 <= 1;
C556 <= 1;
C557 <= 1;
C558 <= 1;
C559 <= 1;
C560 <= 1;
C561 <= 1;
C562 <= 1;
C563 <= 1;
C564 <= 1;
C565 <= 1;
C566 <= 1;
C567 <= 1;
C568 <= 1;
C569 <= 1;
C570 <= 1;
C571 <= 1;
C572 <= 1;

/* Integer definitions */
int C1,C2,C3,C4,C5,C6,C7,C8,C9,C10,C11,C12,C13,C14,C15,C16,C17,C18,C19,C20,C21,C22,C23,C24,C25,C26,C27,C28,C29,C30,C31,C32,C33,C34,C35,C36,C37,C38,C39,C40,C41,C42,C43,C44,C45,C46,C47,C48,C49,C50,C51,C52,C53,C54,C55,C56,C57,C58,C59,C60,C61,C62,C63,C64,C65,C66,C67,C68,C69,C70,C71,C72,C73,C74,C75,C76,C77,C78,C79,C80,C81,C82,C83,C84,C85,C86,C87,C88,C89,C90,C91,C92,C93,C94,C95,C96,C97,C98,C99,C100,C101,C102,C103,C104,C105,C106,C107,C108,C109,C110,C111,C112,C113,C114,C115,C116,C117,C118,C119,C120,C121,C122,C123,C124,C125,C126,C127,C128,C129,C130,C131,C132,C133,C134,C135,C136,C137,C138,C139,C140,C141,C142,C143,C144,C145,C146,C147,C148,C149,C150,C151,C152,C153,C154,C155,C156,C157,C158,C159,C160,C161,C162,C163,C164,C165,C166,C167,C168,C169,C170,C171,C172,C173,C174,C175,C176,C177,C178,C179,C180,C181,C182,C183,C184,C185,C186,C187,C188,C189,C190,C191,C192,C193,C194,C195,C196,C197,C198,C199,C200,C201,C202,C203,C204,C205,C206,C207,C208,C209,C210,C211,C212,C213,C214,C215,C216,C217,C218,C219,C220,C221,C222,C223,C224,C225,C226,C227,C228,C229,C230,C231,C232,C233,C234,C235,C236,C237,C238,C239,C240,C241,C242,C243,C244,C245,C246,C247,C248,C249,C250,C251,C252,C253,C254,C255,C256,C257,C258,C259,C260,C261,C262,C263,C264,C265,C266,C267,C268,C269,C270,C271,C272,C273,C274,C275,C276,C277,C278,C279,C280,C281,C282,C283,C284,C285,C286,C287,C288,C289,C290,C291,C292,C293,C294,C295,C296,C297,C298,C299,C300,C301,C302,C303,C304,C305,C306,C307,C308,C309,C310,C311,C312,C313,C314,C315,C316,C317,C318,C319,C320,C321,C322,C323,C324,C325,C326,C327,C328,C329,C330,C331,C332,C333,C334,C335,C336,C337,C338,C339,C340,C341,C342,C343,C344,C345,C346,C347,C348,C349,C350,C351,C352,C353,C354,C355,C356,C357,C358,C359,C360,C361,C362,C363,C364,C365,C366,C367,C368,C369,C370,C371,C372,C373,C374,C375,C376,C377,C378,C379,C380,C381,C382,C383,C384,C385,C386,C387,C388,C389,C390,C391,C392,C393,C394,C395,C396,C397,C398,C399,C400,C401,C402,C403,C404,C405,C406,C407,C408,C409,C410,C411,C412,C413,C414,C415,C416,C417,C418,C419,C420,C421,C422,C423,C424,C425,C426,C427,C428,C429,C430,C431,C432,C433,C434,C435,C436,C437,C438,C439,C440,C441,C442,C443,C444,C445,C446,C447,C448,C449,C450,C451,C452,C453,C454,C455,C456,C457,C458,C459,C460,C461,C462,C463,C464,C465,C466,C467,C468,C469,C470,C471,C472,C473,C474,C475,C476,C477,C478,C479,C480,C481,C482,C483,C484,C485,C486,C487,C488,C489,C490,C491,C492,C493,C494,C495,C496,C497,C498,C499,C500,C501,C502,C503,C504,C505,C506,C507,C508,C509,C510,C511,C512,C513,C514,C515,C516,C517,C518,C519,C520,C521,C522,C523,C524,C525,C526,C527,C528,C529,C530,C531,C532,C533,C534,C535,C536,C537,C538,C539,C540,C541,C542,C543,C544,C545,C546,C547,C548,C549,C550,C551,C552,C553,C554,C555,C556,C557,C558,C559,C560,C561,C562,C563,C564,C565,C566,C567,C568,C569,C570,C571,C572;
